
--- Job IEEE_39_BUS.gms Start 02/01/26 00:03:33 24.1.3 r41464 WEX-VS8 x86/MS Windows
GAMS 24.1.3   Copyright (C) 1987-2013 GAMS Development. All rights reserved
Licensee: Gary Goldstein                                 G010614:2121CA-WIN
          Decision Ware, Inc.                                        DC2807
--- Starting compilation
--- IEEE_39_BUS.gms(7) 2 Mb
--- .39_FINAL_bus_QUIPU_input.DAT(392) 3 Mb
--- IEEE_39_BUS.gms(317) 3 Mb
--- Starting execution: elapsed 0:00:00.004
--- IEEE_39_BUS.gms(602) 4 Mb
--- Generating MIP model Slave_GT
--- IEEE_39_BUS.gms(606) 4 Mb
--- LOOPS K = 1
---   25 rows  23 columns  47 non-zeroes
---   6 discrete-columns
--- Executing CPLEX: elapsed 0:00:00.017

IBM ILOG CPLEX   24.1.3 r41464 Released Jul 26, 2013 VS8 x86/MS Windows       
Cplex 12.5.1.0

Reading data...
Starting Cplex...
Tried aggregator 1 time.
MIP Presolve eliminated 25 rows and 23 columns.
All rows and columns eliminated.
Presolve time = -0.00 sec. (0.01 ticks)

Root node processing (before b&c):
  Real time             =   -0.00 sec. (0.02 ticks)
Sequential b&c:
  Real time             =    0.00 sec. (0.00 ticks)
                          ------------
Total (root+branch&cut) =   -0.00 sec. (0.02 ticks)
MIP status(101): integer optimal solution
Cplex Time: 0.00sec (det. 0.02 ticks)
Fixing integer variables, and solving final LP...
Tried aggregator 1 time.
LP Presolve eliminated 25 rows and 23 columns.
All rows and columns eliminated.
Presolve time = -0.00 sec. (0.01 ticks)
Fixed MIP status(1): optimal
Cplex Time: 0.00sec (det. 0.02 ticks)

Proven optimal solution.

MIP Solution:        16000.000000    (0 iterations, 0 nodes)
Final Solve:         16000.000000    (0 iterations)

Best possible:       16000.000000
Absolute gap:            0.000000
Relative gap:            0.000000

--- Restarting execution
--- IEEE_39_BUS.gms(606) 0 Mb
--- Reading solution for model Slave_GT
--- Executing after solve: elapsed 0:00:00.170
--- IEEE_39_BUS.gms(602) 3 Mb
--- Generating LP model Slave_GH
--- IEEE_39_BUS.gms(608) 3 Mb
--- LOOPS K = 1
---   5 rows  5 columns  9 non-zeroes
--- Executing CPLEX: elapsed 0:00:00.174

IBM ILOG CPLEX   24.1.3 r41464 Released Jul 26, 2013 VS8 x86/MS Windows       
Cplex 12.5.1.0

Reading data...
Starting Cplex...
Dual infeasible due to empty column 'p_GH(H001)'.
Presolve time = 0.00 sec. (0.00 ticks)
LP status(4): unbounded or infeasible
Cplex Time: 0.00sec (det. 0.00 ticks)
Presolve found the problem infeasible or unbounded.
Rerunning with presolve turned off.
Initializing dual steep norms . . .
LP status(2): unbounded
Cplex Time: 0.00sec (det. 0.00 ticks)
Dual infeasible or unbounded. Switching to primal to aid diagnosis.

Iteration           Objective            In Variable           Out Variable
     1 sI          100.000000   z_slave_GH_ind(H001)  eq_min_GH(H001) slack
     2 sI            0.000000   z_slave_GH_ind(H002)  eq_min_GH(H002) slack
Switched to steepest-edge.
LP status(2): unbounded
Cplex Time: 0.06sec (det. 0.00 ticks)

Model has an unbounded ray.
--- Restarting execution
--- IEEE_39_BUS.gms(608) 0 Mb
--- Reading solution for model Slave_GH
--- Executing after solve: elapsed 0:00:00.294
--- IEEE_39_BUS.gms(602) 3 Mb
--- Generating LP model Slave_Net
--- IEEE_39_BUS.gms(610) 3 Mb
--- LOOPS K = 1
---   86 rows  135 columns  227 non-zeroes
--- Executing CPLEX: elapsed 0:00:00.297

IBM ILOG CPLEX   24.1.3 r41464 Released Jul 26, 2013 VS8 x86/MS Windows       
Cplex 12.5.1.0

Reading data...
Starting Cplex...
Dual infeasible due to empty column 'inj_fromto(B030)'.
Presolve time = 0.00 sec. (0.01 ticks)
LP status(4): unbounded or infeasible
Cplex Time: 0.00sec (det. 0.01 ticks)
Presolve found the problem infeasible or unbounded.
Rerunning with presolve turned off.
Initializing dual steep norms . . .
LP status(2): unbounded
Cplex Time: 0.00sec (det. 0.04 ticks)
Dual infeasible or unbounded. Switching to primal to aid diagnosis.

Iteration log . . .
Iteration:     1    Scaled infeas =             0.000000
Switched to devex.
LP status(2): unbounded
Cplex Time: 0.05sec (det. 0.03 ticks)

Model has an unbounded ray.
--- Restarting execution
--- IEEE_39_BUS.gms(610) 0 Mb
--- Reading solution for model Slave_Net
--- Executing after solve: elapsed 0:00:00.418
--- IEEE_39_BUS.gms(602) 3 Mb
--- Generating LP model Maestro
--- IEEE_39_BUS.gms(632) 3 Mb
--- LOOPS K = 1
---   12 rows  31 columns  44 non-zeroes
--- Executing CPLEX: elapsed 0:00:00.422

IBM ILOG CPLEX   24.1.3 r41464 Released Jul 26, 2013 VS8 x86/MS Windows       
Cplex 12.5.1.0

Reading data...
Starting Cplex...
Tried aggregator 1 time.
LP Presolve eliminated 12 rows and 31 columns.
All rows and columns eliminated.
Presolve time = 0.00 sec. (0.01 ticks)
LP status(1): optimal
Cplex Time: 0.00sec (det. 0.01 ticks)

Optimal solution found.
Objective :     9972596.000000

--- Restarting execution
--- IEEE_39_BUS.gms(632) 0 Mb
--- Reading solution for model Maestro
--- Executing after solve: elapsed 0:00:00.489
--- IEEE_39_BUS.gms(602) 3 Mb
--- Generating QCP model Proyeccion
--- IEEE_39_BUS.gms(647) 5 Mb
--- LOOPS K = 1
---   14 rows  52 columns  85 non-zeroes
---   158 nl-code  39 nl-non-zeroes
--- IEEE_39_BUS.gms(647) 3 Mb
--- Executing CONOPT: elapsed 0:00:00.518
CONOPT 3         24.1.3 r41464 Released Jul 26, 2013 VS8 x86/MS Windows       
 
 
    C O N O P T 3   version 3.15L
    Copyright (C)   ARKI Consulting and Development A/S
                    Bagsvaerdvej 246 A
                    DK-2880 Bagsvaerd, Denmark
 
 
   Iter Phase Ninf   Infeasibility   RGmax    NSB   Step InItr MX OK
      0   0        6.5995100000E+07 (Input point)
                                Pre-triangular equations:        0
                                Post-triangular equations:       1
      1   0        0.0000000000E+00 (After pre-processing)
      2   0        0.0000000000E+00 (After scaling)
 
 ** Feasible solution. Value of objective =    65995100.0000
 
   Iter Phase Ninf     Objective     RGmax    NSB   Step InItr MX OK
      6   3        6.2330080690E+06 1.9E+06     5 4.6E-01    1 F  T
     11   4        2.4597351502E+06 2.6E+03    15 1.0E+00    4 F  T
     16   4        2.3928958616E+06 1.8E-01    38 1.0E+00    5 F  T
     17   4        2.3928958616E+06 1.2E-10    38
 
 ** Optimal solution. Reduced gradient less than tolerance.
 
--- Restarting execution
--- IEEE_39_BUS.gms(647) 0 Mb
--- Reading solution for model Proyeccion
--- Executing after solve: elapsed 0:00:00.659
--- IEEE_39_BUS.gms(602) 3 Mb
--- Generating MIP model Slave_GT
--- IEEE_39_BUS.gms(606) 3 Mb
--- LOOPS K = 2
---   25 rows  23 columns  47 non-zeroes
---   6 discrete-columns
--- Executing CPLEX: elapsed 0:00:00.662

IBM ILOG CPLEX   24.1.3 r41464 Released Jul 26, 2013 VS8 x86/MS Windows       
Cplex 12.5.1.0

Reading data...
Starting Cplex...
Tried aggregator 1 time.
MIP Presolve eliminated 25 rows and 23 columns.
All rows and columns eliminated.
Presolve time = 0.00 sec. (0.01 ticks)

Root node processing (before b&c):
  Real time             =    0.00 sec. (0.02 ticks)
Sequential b&c:
  Real time             =    0.00 sec. (0.00 ticks)
                          ------------
Total (root+branch&cut) =    0.00 sec. (0.02 ticks)
MIP status(101): integer optimal solution
Cplex Time: 0.00sec (det. 0.02 ticks)
Fixing integer variables, and solving final LP...
Tried aggregator 1 time.
LP Presolve eliminated 25 rows and 23 columns.
All rows and columns eliminated.
Presolve time = 0.00 sec. (0.01 ticks)
Fixed MIP status(1): optimal
Cplex Time: 0.00sec (det. 0.02 ticks)

Proven optimal solution.

MIP Solution:        16000.000000    (0 iterations, 0 nodes)
Final Solve:         16000.000000    (0 iterations)

Best possible:       16000.000000
Absolute gap:            0.000000
Relative gap:            0.000000

--- Restarting execution
--- IEEE_39_BUS.gms(606) 0 Mb
--- Reading solution for model Slave_GT
--- Executing after solve: elapsed 0:00:00.782
--- IEEE_39_BUS.gms(602) 3 Mb
--- Generating LP model Slave_GH
--- IEEE_39_BUS.gms(608) 3 Mb
--- LOOPS K = 2
---   5 rows  5 columns  9 non-zeroes
--- Executing CPLEX: elapsed 0:00:00.786

IBM ILOG CPLEX   24.1.3 r41464 Released Jul 26, 2013 VS8 x86/MS Windows       
Cplex 12.5.1.0

Reading data...
Starting Cplex...
Dual infeasible due to empty column 'p_GH(H001)'.
Presolve time = 0.00 sec. (0.00 ticks)
LP status(4): unbounded or infeasible
Cplex Time: 0.00sec (det. 0.00 ticks)
Presolve found the problem infeasible or unbounded.
Rerunning with presolve turned off.
Using devex.
LP status(2): unbounded
Cplex Time: 0.00sec (det. 0.00 ticks)

Model has an unbounded ray.
--- Restarting execution
--- IEEE_39_BUS.gms(608) 0 Mb
--- Reading solution for model Slave_GH
--- Executing after solve: elapsed 0:00:00.852
--- IEEE_39_BUS.gms(602) 3 Mb
--- Generating LP model Slave_Net
--- IEEE_39_BUS.gms(610) 3 Mb
--- LOOPS K = 2
---   86 rows  135 columns  227 non-zeroes
--- Executing CPLEX: elapsed 0:00:00.888

IBM ILOG CPLEX   24.1.3 r41464 Released Jul 26, 2013 VS8 x86/MS Windows       
Cplex 12.5.1.0

Reading data...
Starting Cplex...
Dual infeasible due to empty column 'inj_fromto(B030)'.
Presolve time = 0.00 sec. (0.01 ticks)
LP status(4): unbounded or infeasible
Cplex Time: 0.00sec (det. 0.04 ticks)
Presolve found the problem infeasible or unbounded.
Rerunning with presolve turned off.
Using devex.
LP status(2): unbounded
Cplex Time: 0.00sec (det. 0.04 ticks)

Model has an unbounded ray.
--- Restarting execution
--- IEEE_39_BUS.gms(610) 0 Mb
--- Reading solution for model Slave_Net
--- Executing after solve: elapsed 0:00:00.959
--- IEEE_39_BUS.gms(602) 3 Mb
--- Generating LP model Maestro
--- IEEE_39_BUS.gms(632) 3 Mb
--- LOOPS K = 2
---   23 rows  31 columns  57 non-zeroes
--- Executing CPLEX: elapsed 0:00:00.963

IBM ILOG CPLEX   24.1.3 r41464 Released Jul 26, 2013 VS8 x86/MS Windows       
Cplex 12.5.1.0

Reading data...
Starting Cplex...
Tried aggregator 1 time.
LP Presolve eliminated 23 rows and 31 columns.
All rows and columns eliminated.
Presolve time = 0.00 sec. (0.01 ticks)
LP status(1): optimal
Cplex Time: 0.00sec (det. 0.02 ticks)

Optimal solution found.
Objective :     9972596.000000

--- Restarting execution
--- IEEE_39_BUS.gms(632) 0 Mb
--- Reading solution for model Maestro
--- Executing after solve: elapsed 0:00:01.031
--- IEEE_39_BUS.gms(602) 3 Mb
--- Generating QCP model Proyeccion
--- IEEE_39_BUS.gms(647) 5 Mb
--- LOOPS K = 2
---   25 rows  52 columns  98 non-zeroes
---   158 nl-code  39 nl-non-zeroes
--- IEEE_39_BUS.gms(647) 3 Mb
--- Executing CONOPT: elapsed 0:00:01.033
CONOPT 3         24.1.3 r41464 Released Jul 26, 2013 VS8 x86/MS Windows       
 
 
    C O N O P T 3   version 3.15L
    Copyright (C)   ARKI Consulting and Development A/S
                    Bagsvaerdvej 246 A
                    DK-2880 Bagsvaerd, Denmark
 
 
   Iter Phase Ninf   Infeasibility   RGmax    NSB   Step InItr MX OK
      0   0        4.3422052884E+07 (Input point)
                                Pre-triangular equations:        0
                                Post-triangular equations:       1
      1   0        0.0000000000E+00 (After pre-processing)
      2   0        0.0000000000E+00 (After scaling)
 
 ** Feasible solution. Value of objective =    45814948.7454
 
   Iter Phase Ninf     Objective     RGmax    NSB   Step InItr MX OK
     11   4        6.1258134056E+06 1.3E-03    38 1.0E+00    4 F  T
     12   4        6.1258134056E+06 4.0E-09    38
 
 ** Optimal solution. Reduced gradient less than tolerance.
 
--- Restarting execution
--- IEEE_39_BUS.gms(647) 0 Mb
--- Reading solution for model Proyeccion
--- Executing after solve: elapsed 0:00:01.148
--- IEEE_39_BUS.gms(602) 3 Mb
--- Generating MIP model Slave_GT
--- IEEE_39_BUS.gms(606) 3 Mb
--- LOOPS K = 3
---   25 rows  23 columns  47 non-zeroes
---   6 discrete-columns
--- Executing CPLEX: elapsed 0:00:01.151

IBM ILOG CPLEX   24.1.3 r41464 Released Jul 26, 2013 VS8 x86/MS Windows       
Cplex 12.5.1.0

Reading data...
Starting Cplex...
Tried aggregator 1 time.
MIP Presolve eliminated 25 rows and 23 columns.
All rows and columns eliminated.
Presolve time = -0.00 sec. (0.01 ticks)

Root node processing (before b&c):
  Real time             =   -0.00 sec. (0.02 ticks)
Sequential b&c:
  Real time             =    0.00 sec. (0.00 ticks)
                          ------------
Total (root+branch&cut) =   -0.00 sec. (0.02 ticks)
MIP status(101): integer optimal solution
Cplex Time: 0.00sec (det. 0.02 ticks)
Fixing integer variables, and solving final LP...
Tried aggregator 1 time.
LP Presolve eliminated 25 rows and 23 columns.
All rows and columns eliminated.
Presolve time = -0.00 sec. (0.01 ticks)
Fixed MIP status(1): optimal
Cplex Time: 0.00sec (det. 0.02 ticks)

Proven optimal solution.

MIP Solution:        16000.000000    (0 iterations, 0 nodes)
Final Solve:         16000.000000    (0 iterations)

Best possible:       16000.000000
Absolute gap:            0.000000
Relative gap:            0.000000

--- Restarting execution
--- IEEE_39_BUS.gms(606) 0 Mb
--- Reading solution for model Slave_GT
--- Executing after solve: elapsed 0:00:01.271
--- IEEE_39_BUS.gms(602) 3 Mb
--- Generating LP model Slave_GH
--- IEEE_39_BUS.gms(608) 3 Mb
--- LOOPS K = 3
---   5 rows  5 columns  9 non-zeroes
--- Executing CPLEX: elapsed 0:00:01.274

IBM ILOG CPLEX   24.1.3 r41464 Released Jul 26, 2013 VS8 x86/MS Windows       
Cplex 12.5.1.0

Reading data...
Starting Cplex...
Dual infeasible due to empty column 'p_GH(H001)'.
Presolve time = 0.00 sec. (0.00 ticks)
LP status(4): unbounded or infeasible
Cplex Time: 0.00sec (det. 0.00 ticks)
Presolve found the problem infeasible or unbounded.
Rerunning with presolve turned off.
Using devex.
LP status(2): unbounded
Cplex Time: 0.00sec (det. 0.00 ticks)

Model has an unbounded ray.
--- Restarting execution
--- IEEE_39_BUS.gms(608) 0 Mb
--- Reading solution for model Slave_GH
--- Executing after solve: elapsed 0:00:01.337
--- IEEE_39_BUS.gms(602) 3 Mb
--- Generating LP model Slave_Net
--- IEEE_39_BUS.gms(610) 3 Mb
--- LOOPS K = 3
---   86 rows  135 columns  227 non-zeroes
--- Executing CPLEX: elapsed 0:00:01.374

IBM ILOG CPLEX   24.1.3 r41464 Released Jul 26, 2013 VS8 x86/MS Windows       
Cplex 12.5.1.0

Reading data...
Starting Cplex...
Dual infeasible due to empty column 'inj_fromto(B030)'.
Presolve time = 0.00 sec. (0.01 ticks)
LP status(4): unbounded or infeasible
Cplex Time: 0.00sec (det. 0.04 ticks)
Presolve found the problem infeasible or unbounded.
Rerunning with presolve turned off.
Using devex.
LP status(2): unbounded
Cplex Time: 0.00sec (det. 0.04 ticks)

Model has an unbounded ray.
--- Restarting execution
--- IEEE_39_BUS.gms(610) 0 Mb
--- Reading solution for model Slave_Net
--- Executing after solve: elapsed 0:00:01.439
--- IEEE_39_BUS.gms(602) 3 Mb
--- Generating LP model Maestro
--- IEEE_39_BUS.gms(632) 3 Mb
--- LOOPS K = 3
---   34 rows  31 columns  70 non-zeroes
--- Executing CPLEX: elapsed 0:00:01.442

IBM ILOG CPLEX   24.1.3 r41464 Released Jul 26, 2013 VS8 x86/MS Windows       
Cplex 12.5.1.0

Reading data...
Starting Cplex...
Tried aggregator 1 time.
LP Presolve eliminated 34 rows and 31 columns.
All rows and columns eliminated.
Presolve time = -0.00 sec. (0.01 ticks)
LP status(1): optimal
Cplex Time: 0.00sec (det. 0.03 ticks)

Optimal solution found.
Objective :     9972596.000000

--- Restarting execution
--- IEEE_39_BUS.gms(632) 0 Mb
--- Reading solution for model Maestro
--- Executing after solve: elapsed 0:00:01.512
--- IEEE_39_BUS.gms(707) 3 Mb
--- Putfile f_gen C:\nconvex-gams\IEEE 39 BUS\Resultados_Generacion.csv
--- Putfile f_price C:\nconvex-gams\IEEE 39 BUS\Resultados_Precios.csv
--- Putfile f_conv C:\nconvex-gams\IEEE 39 BUS\Historial_Convergencia.csv
*** Status: Normal completion
--- Job IEEE_39_BUS.gms Stop 02/01/26 00:03:35 elapsed 0:00:01.514
